NAME : n80w180.001.678.tour
COMMENT : Length = 678
COMMENT : Found by LKH [Keld Helsgaun] Tue May  2 05:50:15 2017
TYPE : TOUR
DIMENSION : 81
TOUR_SECTION
1
22
67
53
7
19
9
78
73
12
33
32
43
14
28
5
44
59
4
61
56
37
13
29
77
39
18
47
35
45
58
27
49
23
41
20
76
24
8
66
42
21
10
80
60
38
79
70
71
68
26
64
17
31
72
15
51
55
25
6
75
2
3
63
46
11
30
36
65
48
34
16
50
62
74
40
69
52
81
54
57
-1
EOF
